-360.0 3.0 7.0 1.0 0.0 2.0 6.0 0.0 7.0 4.0 8.0 2.0 2.0 5.0 9.0 5.0 4.0 10.0 4.0 6.0 4.0 5.0 10.0 10.0 5.0 4.0 8.0 7.0 0.0 9.0 5.0 0.0 0.0 2.0 3.0 10.0 5.0 2.0 10.0 4.0 1.0 0.0 6.0 3.0 7.0 8.0 3.0 6.0 9.0 1.0 6.0 5.0 5.0 1.0 10.0 2.0 6.0 7.0 3.0 9.0 9.0 9.0 3.0 7.0 2.0 5.0 3.0 6.0 1.0 9.0 6.0 4.0 6.0 4.0 
3.0 -382.0 6.0 10.0 3.0 2.0 9.0 4.0 6.0 5.0 5.0 9.0 6.0 9.0 6.0 8.0 1.0 10.0 7.0 3.0 1.0 8.0 5.0 6.0 9.0 9.0 3.0 3.0 4.0 8.0 1.0 1.0 6.0 3.0 8.0 9.0 6.0 2.0 10.0 10.0 7.0 3.0 9.0 8.0 3.0 3.0 10.0 3.0 8.0 5.0 4.0 6.0 7.0 5.0 10.0 7.0 10.0 4.0 4.0 10.0 10.0 7.0 3.0 5.0 7.0 0.0 0.0 0.0 0.0 0.0 0.0 0.0 0.0 0.0 
7.0 6.0 -375.0 1.0 8.0 9.0 6.0 2.0 9.0 4.0 3.0 8.0 10.0 6.0 4.0 1.0 7.0 6.0 7.0 5.0 5.0 9.0 6.0 7.0 2.0 7.0 4.0 0.0 2.0 2.0 7.0 0.0 6.0 9.0 9.0 4.0 0.0 7.0 7.0 9.0 4.0 5.0 4.0 7.0 4.0 5.0 4.0 9.0 4.0 9.0 4.0 2.0 2.0 8.0 4.0 2.0 1.0 8.0 7.0 1.0 7.0 4.0 5.0 3.0 1.0 3.0 10.0 0.0 8.0 4.0 5.0 9.0 2.0 9.0 
1.0 10.0 1.0 -355.0 8.0 0.0 0.0 4.0 6.0 7.0 2.0 3.0 10.0 6.0 10.0 1.0 7.0 2.0 4.0 1.0 0.0 1.0 5.0 4.0 1.0 3.0 2.0 3.0 6.0 5.0 6.0 7.0 6.0 3.0 5.0 4.0 9.0 7.0 9.0 6.0 6.0 1.0 10.0 3.0 1.0 9.0 8.0 4.0 7.0 8.0 8.0 7.0 9.0 4.0 3.0 3.0 8.0 6.0 2.0 7.0 5.0 7.0 9.0 8.0 7.0 4.0 0.0 4.0 0.0 1.0 2.0 6.0 4.0 9.0 
0.0 3.0 8.0 8.0 -338.0 7.0 3.0 2.0 5.0 9.0 1.0 1.0 0.0 1.0 3.0 8.0 2.0 6.0 9.0 0.0 0.0 5.0 6.0 9.0 9.0 7.0 1.0 3.0 9.0 7.0 5.0 2.0 7.0 8.0 4.0 0.0 0.0 0.0 4.0 7.0 9.0 10.0 10.0 6.0 1.0 0.0 3.0 4.0 0.0 8.0 2.0 0.0 3.0 5.0 8.0 6.0 7.0 2.0 5.0 8.0 5.0 5.0 5.0 3.0 8.0 4.0 10.0 0.0 0.0 6.0 10.0 3.0 7.0 6.0 
2.0 2.0 9.0 0.0 7.0 -378.0 0.0 10.0 7.0 8.0 3.0 5.0 7.0 3.0 8.0 0.0 8.0 7.0 2.0 2.0 3.0 1.0 0.0 9.0 7.0 3.0 2.0 7.0 6.0 4.0 9.0 7.0 9.0 10.0 9.0 1.0 9.0 10.0 3.0 2.0 8.0 0.0 6.0 9.0 5.0 3.0 0.0 3.0 9.0 0.0 0.0 8.0 4.0 5.0 6.0 4.0 7.0 4.0 10.0 1.0 5.0 9.0 2.0 5.0 8.0 6.0 6.0 8.0 9.0 2.0 10.0 0.0 8.0 7.0 
6.0 9.0 6.0 0.0 3.0 0.0 -407.0 10.0 3.0 2.0 4.0 5.0 6.0 3.0 7.0 10.0 10.0 7.0 9.0 9.0 3.0 5.0 9.0 5.0 3.0 10.0 2.0 5.0 4.0 9.0 3.0 2.0 5.0 10.0 4.0 0.0 9.0 10.0 7.0 2.0 6.0 0.0 8.0 7.0 4.0 9.0 3.0 10.0 0.0 8.0 6.0 6.0 1.0 2.0 0.0 2.0 8.0 8.0 10.0 5.0 2.0 5.0 5.0 10.0 8.0 6.0 9.0 8.0 7.0 10.0 0.0 6.0 2.0 10.0 
0.0 4.0 2.0 4.0 2.0 10.0 10.0 -381.0 3.0 8.0 8.0 4.0 10.0 5.0 8.0 3.0 7.0 9.0 1.0 7.0 1.0 0.0 10.0 9.0 8.0 1.0 1.0 7.0 7.0 3.0 8.0 1.0 7.0 5.0 1.0 10.0 2.0 9.0 9.0 7.0 9.0 1.0 2.0 9.0 4.0 9.0 0.0 4.0 6.0 0.0 10.0 1.0 10.0 3.0 7.0 2.0 8.0 10.0 7.0 3.0 10.0 2.0 1.0 1.0 4.0 1.0 10.0 10.0 10.0 7.0 0.0 1.0 2.0 6.0 
7.0 6.0 9.0 6.0 5.0 7.0 3.0 3.0 -367.0 3.0 4.0 10.0 4.0 0.0 5.0 8.0 8.0 7.0 5.0 9.0 5.0 0.0 8.0 0.0 0.0 1.0 8.0 0.0 9.0 7.0 0.0 8.0 0.0 7.0 5.0 4.0 8.0 4.0 2.0 8.0 7.0 3.0 7.0 6.0 7.0 9.0 2.0 4.0 0.0 10.0 10.0 4.0 2.0 10.0 3.0 4.0 2.0 10.0 1.0 9.0 8.0 1.0 0.0 10.0 4.0 8.0 8.0 2.0 2.0 0.0 2.0 1.0 10.0 8.0 
4.0 5.0 4.0 7.0 9.0 8.0 2.0 8.0 3.0 -404.0 10.0 0.0 2.0 3.0 1.0 8.0 10.0 5.0 10.0 5.0 0.0 7.0 2.0 10.0 1.0 3.0 9.0 4.0 4.0 3.0 6.0 6.0 1.0 5.0 5.0 8.0 6.0 4.0 6.0 8.0 2.0 6.0 2.0 3.0 1.0 5.0 6.0 9.0 9.0 10.0 5.0 8.0 2.0 10.0 9.0 10.0 10.0 3.0 8.0 4.0 6.0 10.0 5.0 2.0 4.0 7.0 8.0 0.0 5.0 4.0 6.0 9.0 7.0 7.0 
8.0 5.0 3.0 2.0 1.0 3.0 4.0 8.0 4.0 10.0 -377.0 7.0 1.0 1.0 8.0 9.0 4.0 4.0 8.0 5.0 2.0 3.0 6.0 9.0 3.0 0.0 4.0 1.0 8.0 4.0 4.0 2.0 1.0 8.0 0.0 8.0 6.0 5.0 5.0 3.0 5.0 8.0 7.0 5.0 6.0 7.0 1.0 3.0 2.0 3.0 2.0 7.0 10.0 7.0 4.0 9.0 3.0 6.0 10.0 7.0 9.0 9.0 5.0 5.0 9.0 8.0 8.0 2.0 8.0 2.0 7.0 5.0 1.0 10.0 
2.0 9.0 8.0 3.0 1.0 5.0 5.0 4.0 10.0 0.0 7.0 -383.0 6.0 10.0 6.0 9.0 8.0 10.0 7.0 0.0 0.0 7.0 9.0 10.0 7.0 7.0 7.0 7.0 1.0 0.0 1.0 10.0 1.0 10.0 0.0 4.0 10.0 8.0 3.0 6.0 5.0 5.0 2.0 1.0 8.0 0.0 0.0 2.0 7.0 3.0 2.0 9.0 5.0 1.0 0.0 9.0 10.0 1.0 1.0 6.0 6.0 9.0 6.0 6.0 8.0 9.0 10.0 8.0 9.0 0.0 8.0 5.0 1.0 3.0 
2.0 6.0 10.0 10.0 0.0 7.0 6.0 10.0 4.0 2.0 1.0 6.0 -419.0 6.0 8.0 10.0 10.0 9.0 4.0 9.0 1.0 9.0 7.0 4.0 10.0 7.0 7.0 3.0 0.0 10.0 7.0 6.0 10.0 9.0 3.0 6.0 9.0 9.0 3.0 9.0 9.0 8.0 9.0 5.0 4.0 8.0 5.0 3.0 3.0 4.0 9.0 5.0 2.0 7.0 4.0 5.0 4.0 6.0 3.0 8.0 6.0 3.0 4.0 8.0 1.0 0.0 6.0 2.0 7.0 4.0 1.0 6.0 6.0 5.0 
5.0 9.0 6.0 6.0 1.0 3.0 3.0 5.0 0.0 3.0 1.0 10.0 6.0 -363.0 2.0 3.0 10.0 5.0 2.0 3.0 10.0 0.0 4.0 3.0 1.0 1.0 9.0 7.0 3.0 7.0 4.0 3.0 0.0 6.0 8.0 5.0 3.0 10.0 9.0 9.0 5.0 2.0 1.0 9.0 6.0 9.0 10.0 8.0 3.0 8.0 6.0 8.0 9.0 1.0 5.0 0.0 8.0 2.0 4.0 7.0 4.0 3.0 7.0 0.0 2.0 5.0 10.0 7.0 7.0 5.0 0.0 3.0 6.0 8.0 
9.0 6.0 4.0 10.0 3.0 8.0 7.0 8.0 5.0 1.0 8.0 6.0 8.0 2.0 -396.0 8.0 8.0 0.0 8.0 2.0 5.0 0.0 3.0 8.0 0.0 9.0 1.0 4.0 9.0 8.0 1.0 1.0 1.0 10.0 2.0 5.0 7.0 3.0 1.0 9.0 9.0 7.0 3.0 9.0 3.0 9.0 4.0 9.0 6.0 3.0 0.0 3.0 10.0 9.0 8.0 7.0 3.0 10.0 10.0 6.0 5.0 6.0 6.0 4.0 8.0 6.0 6.0 2.0 8.0 4.0 2.0 4.0 1.0 8.0 
5.0 8.0 1.0 1.0 8.0 0.0 10.0 3.0 8.0 8.0 9.0 9.0 10.0 3.0 8.0 -370.0 10.0 10.0 5.0 0.0 8.0 7.0 2.0 2.0 9.0 4.0 7.0 10.0 10.0 3.0 9.0 4.0 6.0 2.0 8.0 3.0 0.0 0.0 2.0 9.0 1.0 5.0 2.0 0.0 2.0 4.0 3.0 1.0 1.0 3.0 7.0 3.0 5.0 5.0 10.0 0.0 6.0 10.0 10.0 10.0 9.0 0.0 2.0 4.0 0.0 9.0 0.0 6.0 8.0 1.0 2.0 8.0 4.0 8.0 
4.0 1.0 7.0 7.0 2.0 8.0 10.0 7.0 8.0 10.0 4.0 8.0 10.0 10.0 8.0 10.0 -419.0 4.0 8.0 0.0 2.0 7.0 7.0 8.0 10.0 5.0 9.0 3.0 7.0 7.0 9.0 1.0 0.0 3.0 1.0 1.0 7.0 6.0 3.0 9.0 0.0 7.0 4.0 8.0 6.0 6.0 9.0 8.0 1.0 9.0 8.0 6.0 3.0 1.0 6.0 10.0 6.0 9.0 3.0 3.0 7.0 0.0 10.0 10.0 3.0 1.0 8.0 9.0 8.0 7.0 1.0 4.0 1.0 6.0 
10.0 10.0 6.0 2.0 6.0 7.0 7.0 9.0 7.0 5.0 4.0 10.0 9.0 5.0 0.0 10.0 4.0 -423.0 0.0 2.0 4.0 8.0 9.0 8.0 2.0 5.0 7.0 9.0 8.0 7.0 2.0 8.0 0.0 6.0 1.0 0.0 6.0 9.0 6.0 6.0 4.0 0.0 7.0 2.0 8.0 4.0 7.0 9.0 0.0 10.0 9.0 8.0 3.0 6.0 9.0 4.0 8.0 7.0 5.0 7.0 10.0 9.0 0.0 0.0 9.0 10.0 9.0 0.0 6.0 3.0 8.0 0.0 8.0 10.0 
4.0 7.0 7.0 4.0 9.0 2.0 9.0 1.0 5.0 10.0 8.0 7.0 4.0 2.0 8.0 5.0 8.0 0.0 -431.0 3.0 7.0 8.0 6.0 4.0 5.0 4.0 1.0 6.0 0.0 6.0 6.0 10.0 0.0 3.0 3.0 9.0 6.0 5.0 8.0 7.0 9.0 6.0 5.0 2.0 1.0 7.0 10.0 8.0 9.0 4.0 4.0 10.0 10.0 10.0 9.0 8.0 0.0 8.0 10.0 8.0 5.0 8.0 6.0 8.0 7.0 6.0 5.0 9.0 9.0 5.0 4.0 5.0 4.0 5.0 
6.0 3.0 5.0 1.0 0.0 2.0 9.0 7.0 9.0 5.0 5.0 0.0 9.0 3.0 2.0 0.0 0.0 2.0 3.0 -321.0 7.0 5.0 2.0 4.0 7.0 3.0 0.0 1.0 7.0 7.0 2.0 10.0 8.0 8.0 9.0 4.0 0.0 6.0 9.0 6.0 4.0 1.0 7.0 3.0 0.0 2.0 6.0 2.0 6.0 8.0 10.0 3.0 0.0 5.0 4.0 2.0 0.0 7.0 0.0 4.0 8.0 5.0 10.0 5.0 7.0 8.0 0.0 1.0 6.0 0.0 7.0 8.0 0.0 6.0 
4.0 1.0 5.0 0.0 0.0 3.0 3.0 1.0 5.0 0.0 2.0 0.0 1.0 10.0 5.0 8.0 2.0 4.0 7.0 7.0 -333.0 10.0 4.0 8.0 7.0 7.0 9.0 8.0 7.0 10.0 0.0 4.0 1.0 2.0 8.0 8.0 10.0 4.0 5.0 6.0 5.0 10.0 3.0 4.0 4.0 6.0 3.0 1.0 9.0 10.0 1.0 4.0 8.0 9.0 6.0 3.0 0.0 3.0 2.0 5.0 1.0 1.0 8.0 1.0 0.0 7.0 8.0 1.0 5.0 4.0 4.0 9.0 2.0 0.0 
5.0 8.0 9.0 1.0 5.0 1.0 5.0 0.0 0.0 7.0 3.0 7.0 9.0 0.0 0.0 7.0 7.0 8.0 8.0 5.0 10.0 -341.0 10.0 7.0 4.0 3.0 8.0 0.0 9.0 8.0 0.0 2.0 2.0 5.0 4.0 0.0 3.0 6.0 3.0 10.0 0.0 2.0 4.0 10.0 7.0 2.0 8.0 10.0 5.0 5.0 9.0 6.0 5.0 1.0 9.0 0.0 9.0 6.0 4.0 3.0 2.0 2.0 9.0 5.0 4.0 4.0 2.0 5.0 1.0 6.0 1.0 0.0 5.0 1.0 
10.0 5.0 6.0 5.0 6.0 0.0 9.0 10.0 8.0 2.0 6.0 9.0 7.0 4.0 3.0 2.0 7.0 9.0 6.0 2.0 4.0 10.0 -382.0 8.0 0.0 2.0 4.0 8.0 5.0 10.0 4.0 3.0 0.0 7.0 8.0 3.0 8.0 8.0 5.0 10.0 0.0 4.0 3.0 2.0 9.0 6.0 0.0 10.0 6.0 3.0 3.0 5.0 1.0 7.0 10.0 2.0 5.0 3.0 3.0 7.0 7.0 3.0 6.0 6.0 8.0 10.0 0.0 1.0 2.0 9.0 0.0 1.0 8.0 9.0 
10.0 6.0 7.0 4.0 9.0 9.0 5.0 9.0 0.0 10.0 9.0 10.0 4.0 3.0 8.0 2.0 8.0 8.0 4.0 4.0 8.0 7.0 8.0 -390.0 1.0 1.0 10.0 5.0 9.0 7.0 7.0 5.0 5.0 3.0 7.0 2.0 9.0 3.0 2.0 4.0 2.0 8.0 3.0 0.0 0.0 8.0 6.0 7.0 8.0 0.0 8.0 8.0 1.0 7.0 8.0 5.0 3.0 2.0 0.0 4.0 7.0 2.0 6.0 1.0 4.0 5.0 10.0 7.0 6.0 1.0 1.0 8.0 9.0 3.0 
5.0 9.0 2.0 1.0 9.0 7.0 3.0 8.0 0.0 1.0 3.0 7.0 10.0 1.0 0.0 9.0 10.0 2.0 5.0 7.0 7.0 4.0 0.0 1.0 -389.0 6.0 9.0 7.0 6.0 9.0 8.0 9.0 9.0 2.0 1.0 8.0 5.0 4.0 1.0 0.0 0.0 2.0 2.0 10.0 9.0 0.0 10.0 7.0 2.0 8.0 9.0 0.0 8.0 9.0 2.0 1.0 8.0 10.0 10.0 8.0 10.0 6.0 10.0 2.0 3.0 0.0 2.0 1.0 7.0 9.0 6.0 5.0 8.0 10.0 
4.0 9.0 7.0 3.0 7.0 3.0 10.0 1.0 1.0 3.0 0.0 7.0 7.0 1.0 9.0 4.0 5.0 5.0 4.0 3.0 7.0 3.0 2.0 1.0 6.0 -364.0 10.0 5.0 1.0 7.0 1.0 1.0 9.0 0.0 6.0 3.0 3.0 8.0 10.0 7.0 3.0 8.0 3.0 2.0 3.0 1.0 7.0 10.0 2.0 8.0 8.0 5.0 9.0 1.0 5.0 4.0 6.0 10.0 10.0 4.0 5.0 7.0 9.0 1.0 9.0 0.0 5.0 2.0 8.0 6.0 4.0 5.0 3.0 8.0 
8.0 3.0 4.0 2.0 1.0 2.0 2.0 1.0 8.0 9.0 4.0 7.0 7.0 9.0 1.0 7.0 9.0 7.0 1.0 0.0 9.0 8.0 4.0 10.0 9.0 10.0 -332.0 1.0 0.0 1.0 4.0 2.0 5.0 1.0 6.0 10.0 7.0 0.0 7.0 3.0 9.0 8.0 4.0 1.0 2.0 6.0 2.0 1.0 1.0 6.0 6.0 5.0 7.0 8.0 3.0 5.0 2.0 0.0 2.0 1.0 2.0 2.0 5.0 8.0 8.0 2.0 8.0 9.0 5.0 4.0 2.0 2.0 7.0 0.0 
7.0 3.0 0.0 3.0 3.0 7.0 5.0 7.0 0.0 4.0 1.0 7.0 3.0 7.0 4.0 10.0 3.0 9.0 6.0 1.0 8.0 0.0 8.0 5.0 7.0 5.0 1.0 -340.0 6.0 7.0 3.0 2.0 7.0 4.0 3.0 8.0 9.0 3.0 2.0 2.0 3.0 1.0 0.0 1.0 9.0 6.0 8.0 5.0 0.0 10.0 9.0 8.0 1.0 7.0 1.0 8.0 2.0 0.0 10.0 4.0 5.0 3.0 2.0 10.0 4.0 7.0 0.0 8.0 4.0 1.0 3.0 4.0 6.0 10.0 
0.0 4.0 2.0 6.0 9.0 6.0 4.0 7.0 9.0 4.0 8.0 1.0 0.0 3.0 9.0 10.0 7.0 8.0 0.0 7.0 7.0 9.0 5.0 9.0 6.0 1.0 0.0 6.0 -336.0 5.0 2.0 7.0 3.0 6.0 9.0 3.0 1.0 6.0 2.0 1.0 4.0 1.0 2.0 2.0 4.0 3.0 1.0 9.0 6.0 4.0 6.0 1.0 6.0 4.0 2.0 8.0 7.0 2.0 9.0 10.0 0.0 5.0 2.0 0.0 7.0 1.0 8.0 8.0 2.0 7.0 0.0 4.0 1.0 8.0 
9.0 8.0 2.0 5.0 7.0 4.0 9.0 3.0 7.0 3.0 4.0 0.0 10.0 7.0 8.0 3.0 7.0 7.0 6.0 7.0 10.0 8.0 10.0 7.0 9.0 7.0 1.0 7.0 5.0 -433.0 10.0 4.0 8.0 5.0 9.0 4.0 7.0 5.0 6.0 9.0 4.0 3.0 4.0 4.0 10.0 7.0 4.0 4.0 0.0 9.0 7.0 10.0 8.0 4.0 7.0 2.0 7.0 5.0 10.0 6.0 10.0 6.0 9.0 8.0 1.0 4.0 2.0 8.0 10.0 1.0 0.0 8.0 4.0 0.0 
5.0 1.0 7.0 6.0 5.0 9.0 3.0 8.0 0.0 6.0 4.0 1.0 7.0 4.0 1.0 9.0 9.0 2.0 6.0 2.0 0.0 0.0 4.0 7.0 8.0 1.0 4.0 3.0 2.0 10.0 -325.0 4.0 4.0 0.0 2.0 6.0 6.0 5.0 1.0 7.0 6.0 6.0 0.0 5.0 8.0 10.0 9.0 2.0 4.0 10.0 2.0 6.0 7.0 0.0 0.0 5.0 0.0 1.0 3.0 1.0 10.0 5.0 8.0 1.0 1.0 5.0 4.0 10.0 6.0 1.0 8.0 10.0 0.0 2.0 
0.0 1.0 0.0 7.0 2.0 7.0 2.0 1.0 8.0 6.0 2.0 10.0 6.0 3.0 1.0 4.0 1.0 8.0 10.0 10.0 4.0 2.0 3.0 5.0 9.0 1.0 2.0 2.0 7.0 4.0 4.0 -366.0 7.0 1.0 1.0 2.0 4.0 5.0 1.0 1.0 10.0 7.0 5.0 10.0 10.0 8.0 0.0 0.0 3.0 1.0 8.0 9.0 9.0 8.0 10.0 10.0 3.0 4.0 5.0 6.0 6.0 8.0 7.0 9.0 9.0 8.0 0.0 8.0 5.0 4.0 1.0 8.0 10.0 3.0 
0.0 6.0 6.0 6.0 7.0 9.0 5.0 7.0 0.0 1.0 1.0 1.0 10.0 0.0 1.0 6.0 0.0 0.0 0.0 8.0 1.0 2.0 0.0 5.0 9.0 9.0 5.0 7.0 3.0 8.0 4.0 7.0 -340.0 3.0 9.0 10.0 8.0 9.0 6.0 5.0 0.0 2.0 3.0 9.0 0.0 2.0 5.0 10.0 5.0 10.0 0.0 10.0 7.0 9.0 0.0 0.0 3.0 3.0 10.0 4.0 2.0 5.0 2.0 0.0 7.0 7.0 8.0 5.0 8.0 7.0 2.0 7.0 4.0 0.0 
2.0 3.0 9.0 3.0 8.0 10.0 10.0 5.0 7.0 5.0 8.0 10.0 9.0 6.0 10.0 2.0 3.0 6.0 3.0 8.0 2.0 5.0 7.0 3.0 2.0 0.0 1.0 4.0 6.0 5.0 0.0 1.0 3.0 -364.0 7.0 6.0 9.0 2.0 10.0 1.0 6.0 4.0 7.0 6.0 1.0 3.0 0.0 0.0 4.0 10.0 5.0 9.0 7.0 1.0 5.0 6.0 2.0 6.0 0.0 7.0 6.0 7.0 0.0 8.0 6.0 5.0 3.0 9.0 7.0 2.0 1.0 7.0 10.0 3.0 
3.0 8.0 9.0 5.0 4.0 9.0 4.0 1.0 5.0 5.0 0.0 0.0 3.0 8.0 2.0 8.0 1.0 1.0 3.0 9.0 8.0 4.0 8.0 7.0 1.0 6.0 6.0 3.0 9.0 9.0 2.0 1.0 9.0 7.0 -372.0 0.0 10.0 9.0 8.0 7.0 9.0 4.0 1.0 5.0 10.0 2.0 2.0 10.0 1.0 3.0 8.0 3.0 0.0 6.0 6.0 2.0 5.0 7.0 2.0 3.0 3.0 7.0 10.0 2.0 8.0 0.0 7.0 8.0 4.0 7.0 9.0 3.0 9.0 4.0 
10.0 9.0 4.0 4.0 0.0 1.0 0.0 10.0 4.0 8.0 8.0 4.0 6.0 5.0 5.0 3.0 1.0 0.0 9.0 4.0 8.0 0.0 3.0 2.0 8.0 3.0 10.0 8.0 3.0 4.0 6.0 2.0 10.0 6.0 0.0 -342.0 1.0 3.0 6.0 4.0 3.0 4.0 3.0 10.0 6.0 0.0 2.0 2.0 6.0 10.0 3.0 2.0 1.0 7.0 2.0 5.0 7.0 7.0 1.0 9.0 8.0 5.0 6.0 0.0 7.0 0.0 4.0 3.0 5.0 5.0 9.0 0.0 10.0 8.0 
5.0 6.0 0.0 9.0 0.0 9.0 9.0 2.0 8.0 6.0 6.0 10.0 9.0 3.0 7.0 0.0 7.0 6.0 6.0 0.0 10.0 3.0 8.0 9.0 5.0 3.0 7.0 9.0 1.0 7.0 6.0 4.0 8.0 9.0 10.0 1.0 -395.0 0.0 9.0 2.0 9.0 3.0 6.0 1.0 10.0 5.0 1.0 7.0 1.0 0.0 5.0 3.0 0.0 7.0 10.0 2.0 9.0 6.0 8.0 10.0 10.0 3.0 5.0 5.0 1.0 1.0 4.0 9.0 8.0 6.0 2.0 4.0 10.0 5.0 
2.0 2.0 7.0 7.0 0.0 10.0 10.0 9.0 4.0 4.0 5.0 8.0 9.0 10.0 3.0 0.0 6.0 9.0 5.0 6.0 4.0 6.0 8.0 3.0 4.0 8.0 0.0 3.0 6.0 5.0 5.0 5.0 9.0 2.0 9.0 3.0 0.0 -388.0 10.0 10.0 6.0 8.0 0.0 5.0 10.0 2.0 3.0 0.0 9.0 8.0 10.0 9.0 6.0 4.0 0.0 7.0 2.0 0.0 4.0 9.0 6.0 4.0 8.0 1.0 7.0 9.0 5.0 8.0 2.0 3.0 1.0 6.0 4.0 6.0 
10.0 10.0 7.0 9.0 4.0 3.0 7.0 9.0 2.0 6.0 5.0 3.0 3.0 9.0 1.0 2.0 3.0 6.0 8.0 9.0 5.0 3.0 5.0 2.0 1.0 10.0 7.0 2.0 2.0 6.0 1.0 1.0 6.0 10.0 8.0 6.0 9.0 10.0 -391.0 5.0 5.0 7.0 9.0 6.0 6.0 9.0 0.0 10.0 1.0 2.0 3.0 8.0 3.0 7.0 4.0 8.0 2.0 6.0 10.0 6.0 9.0 0.0 2.0 0.0 0.0 5.0 8.0 6.0 0.0 8.0 5.0 8.0 8.0 5.0 
4.0 10.0 9.0 6.0 7.0 2.0 2.0 7.0 8.0 8.0 3.0 6.0 9.0 9.0 9.0 9.0 9.0 6.0 7.0 6.0 6.0 10.0 10.0 4.0 0.0 7.0 3.0 2.0 1.0 9.0 7.0 1.0 5.0 1.0 7.0 4.0 2.0 10.0 5.0 -370.0 4.0 1.0 5.0 2.0 10.0 2.0 2.0 9.0 2.0 5.0 2.0 3.0 1.0 6.0 1.0 9.0 3.0 1.0 0.0 5.0 6.0 5.0 5.0 2.0 1.0 4.0 3.0 6.0 0.0 10.0 5.0 8.0 5.0 7.0 
1.0 7.0 4.0 6.0 9.0 8.0 6.0 9.0 7.0 2.0 5.0 5.0 9.0 5.0 9.0 1.0 0.0 4.0 9.0 4.0 5.0 0.0 0.0 2.0 0.0 3.0 9.0 3.0 4.0 4.0 6.0 10.0 0.0 6.0 9.0 3.0 9.0 6.0 5.0 4.0 -376.0 1.0 6.0 8.0 9.0 5.0 2.0 6.0 4.0 9.0 2.0 5.0 5.0 6.0 9.0 10.0 10.0 8.0 3.0 2.0 1.0 9.0 8.0 2.0 8.0 1.0 5.0 8.0 3.0 5.0 8.0 3.0 1.0 6.0 
0.0 3.0 5.0 1.0 10.0 0.0 0.0 1.0 3.0 6.0 8.0 5.0 8.0 2.0 7.0 5.0 7.0 0.0 6.0 1.0 10.0 2.0 4.0 8.0 2.0 8.0 8.0 1.0 1.0 3.0 6.0 7.0 2.0 4.0 4.0 4.0 3.0 8.0 7.0 1.0 1.0 -337.0 2.0 9.0 10.0 4.0 3.0 7.0 1.0 6.0 7.0 1.0 7.0 5.0 8.0 0.0 0.0 7.0 10.0 9.0 8.0 10.0 5.0 7.0 0.0 6.0 2.0 9.0 1.0 9.0 0.0 2.0 9.0 1.0 
6.0 9.0 4.0 10.0 10.0 6.0 8.0 2.0 7.0 2.0 7.0 2.0 9.0 1.0 3.0 2.0 4.0 7.0 5.0 7.0 3.0 4.0 3.0 3.0 2.0 3.0 4.0 0.0 2.0 4.0 0.0 5.0 3.0 7.0 1.0 3.0 6.0 0.0 9.0 5.0 6.0 2.0 -366.0 3.0 0.0 7.0 7.0 9.0 1.0 6.0 9.0 10.0 6.0 7.0 2.0 0.0 9.0 9.0 9.0 1.0 8.0 10.0 0.0 5.0 8.0 0.0 9.0 3.0 8.0 9.0 8.0 9.0 1.0 7.0 
3.0 8.0 7.0 3.0 6.0 9.0 7.0 9.0 6.0 3.0 5.0 1.0 5.0 9.0 9.0 0.0 8.0 2.0 2.0 3.0 4.0 10.0 2.0 0.0 10.0 2.0 1.0 1.0 2.0 4.0 5.0 10.0 9.0 6.0 5.0 10.0 1.0 5.0 6.0 2.0 8.0 9.0 3.0 -344.0 3.0 3.0 10.0 3.0 9.0 1.0 6.0 10.0 6.0 0.0 3.0 2.0 8.0 9.0 6.0 2.0 3.0 7.0 6.0 3.0 0.0 4.0 2.0 7.0 1.0 1.0 3.0 3.0 2.0 1.0 
7.0 3.0 4.0 1.0 1.0 5.0 4.0 4.0 7.0 1.0 6.0 8.0 4.0 6.0 3.0 2.0 6.0 8.0 1.0 0.0 4.0 7.0 9.0 0.0 9.0 3.0 2.0 9.0 4.0 10.0 8.0 10.0 0.0 1.0 10.0 6.0 10.0 10.0 6.0 10.0 9.0 10.0 0.0 3.0 -395.0 3.0 2.0 0.0 7.0 1.0 8.0 0.0 5.0 10.0 9.0 5.0 9.0 10.0 10.0 6.0 1.0 9.0 5.0 3.0 1.0 3.0 9.0 9.0 2.0 6.0 8.0 7.0 7.0 9.0 
8.0 3.0 5.0 9.0 0.0 3.0 9.0 9.0 9.0 5.0 7.0 0.0 8.0 9.0 9.0 4.0 6.0 4.0 7.0 2.0 6.0 2.0 6.0 8.0 0.0 1.0 6.0 6.0 3.0 7.0 10.0 8.0 2.0 3.0 2.0 0.0 5.0 2.0 9.0 2.0 5.0 4.0 7.0 3.0 3.0 -347.0 0.0 3.0 8.0 10.0 2.0 10.0 4.0 2.0 9.0 5.0 4.0 4.0 1.0 4.0 1.0 4.0 1.0 6.0 5.0 3.0 6.0 2.0 0.0 8.0 2.0 6.0 5.0 6.0 
3.0 10.0 4.0 8.0 3.0 0.0 3.0 0.0 2.0 6.0 1.0 0.0 5.0 10.0 4.0 3.0 9.0 7.0 10.0 6.0 3.0 8.0 0.0 6.0 10.0 7.0 2.0 8.0 1.0 4.0 9.0 0.0 5.0 0.0 2.0 2.0 1.0 3.0 0.0 2.0 2.0 3.0 7.0 10.0 2.0 0.0 -323.0 6.0 2.0 10.0 9.0 8.0 6.0 9.0 1.0 2.0 2.0 8.0 6.0 10.0 8.0 1.0 4.0 0.0 2.0 6.0 5.0 0.0 1.0 6.0 4.0 8.0 8.0 0.0 
6.0 3.0 9.0 4.0 4.0 3.0 10.0 4.0 4.0 9.0 3.0 2.0 3.0 8.0 9.0 1.0 8.0 9.0 8.0 2.0 1.0 10.0 10.0 7.0 7.0 10.0 1.0 5.0 9.0 4.0 2.0 0.0 10.0 0.0 10.0 2.0 7.0 0.0 10.0 9.0 6.0 7.0 9.0 3.0 0.0 3.0 6.0 -380.0 0.0 9.0 1.0 7.0 6.0 1.0 6.0 10.0 8.0 1.0 3.0 9.0 2.0 9.0 2.0 9.0 7.0 7.0 1.0 1.0 9.0 9.0 0.0 5.0 0.0 1.0 
9.0 8.0 4.0 7.0 0.0 9.0 0.0 6.0 0.0 9.0 2.0 7.0 3.0 3.0 6.0 1.0 1.0 0.0 9.0 6.0 9.0 5.0 6.0 8.0 2.0 2.0 1.0 0.0 6.0 0.0 4.0 3.0 5.0 4.0 1.0 6.0 1.0 9.0 1.0 2.0 4.0 1.0 1.0 9.0 7.0 8.0 2.0 0.0 -315.0 9.0 10.0 2.0 3.0 6.0 9.0 1.0 1.0 3.0 2.0 7.0 1.0 9.0 0.0 1.0 9.0 1.0 2.0 5.0 7.0 9.0 8.0 5.0 2.0 6.0 
1.0 5.0 9.0 8.0 8.0 0.0 8.0 0.0 10.0 10.0 3.0 3.0 4.0 8.0 3.0 3.0 9.0 10.0 4.0 8.0 10.0 5.0 3.0 0.0 8.0 8.0 6.0 10.0 4.0 9.0 10.0 1.0 10.0 10.0 3.0 10.0 0.0 8.0 2.0 5.0 9.0 6.0 6.0 1.0 1.0 10.0 10.0 9.0 9.0 -422.0 5.0 1.0 5.0 10.0 5.0 4.0 9.0 0.0 10.0 3.0 8.0 4.0 3.0 7.0 0.0 9.0 8.0 1.0 8.0 8.0 6.0 8.0 1.0 2.0 
6.0 4.0 4.0 8.0 2.0 0.0 6.0 10.0 10.0 5.0 2.0 2.0 9.0 6.0 0.0 7.0 8.0 9.0 4.0 10.0 1.0 9.0 3.0 8.0 9.0 8.0 6.0 9.0 6.0 7.0 2.0 8.0 0.0 5.0 8.0 3.0 5.0 10.0 3.0 2.0 2.0 7.0 9.0 6.0 8.0 2.0 9.0 1.0 10.0 5.0 -393.0 9.0 3.0 2.0 4.0 3.0 0.0 7.0 7.0 8.0 4.0 9.0 10.0 7.0 2.0 3.0 2.0 9.0 0.0 1.0 9.0 4.0 6.0 1.0 
5.0 6.0 2.0 7.0 0.0 8.0 6.0 1.0 4.0 8.0 7.0 9.0 5.0 8.0 3.0 3.0 6.0 8.0 10.0 3.0 4.0 6.0 5.0 8.0 0.0 5.0 5.0 8.0 1.0 10.0 6.0 9.0 10.0 9.0 3.0 2.0 3.0 9.0 8.0 3.0 5.0 1.0 10.0 10.0 0.0 10.0 8.0 7.0 2.0 1.0 9.0 -403.0 10.0 10.0 6.0 5.0 7.0 9.0 4.0 4.0 9.0 10.0 1.0 9.0 3.0 4.0 3.0 0.0 2.0 5.0 1.0 4.0 7.0 4.0 
5.0 7.0 2.0 9.0 3.0 4.0 1.0 10.0 2.0 2.0 10.0 5.0 2.0 9.0 10.0 5.0 3.0 3.0 10.0 0.0 8.0 5.0 1.0 1.0 8.0 9.0 7.0 1.0 6.0 8.0 7.0 9.0 7.0 7.0 0.0 1.0 0.0 6.0 3.0 1.0 5.0 7.0 6.0 6.0 5.0 4.0 6.0 6.0 3.0 5.0 3.0 10.0 -363.0 5.0 3.0 8.0 7.0 3.0 8.0 0.0 0.0 7.0 2.0 8.0 2.0 8.0 5.0 3.0 6.0 6.0 4.0 6.0 8.0 1.0 
1.0 5.0 8.0 4.0 5.0 5.0 2.0 3.0 10.0 10.0 7.0 1.0 7.0 1.0 9.0 5.0 1.0 6.0 10.0 5.0 9.0 1.0 7.0 7.0 9.0 1.0 8.0 7.0 4.0 4.0 0.0 8.0 9.0 1.0 6.0 7.0 7.0 4.0 7.0 6.0 6.0 5.0 7.0 0.0 10.0 2.0 9.0 1.0 6.0 10.0 2.0 10.0 5.0 -383.0 4.0 8.0 7.0 9.0 3.0 1.0 7.0 8.0 9.0 4.0 0.0 1.0 2.0 0.0 1.0 2.0 10.0 6.0 10.0 1.0 
10.0 10.0 4.0 3.0 8.0 6.0 0.0 7.0 3.0 9.0 4.0 0.0 4.0 5.0 8.0 10.0 6.0 9.0 9.0 4.0 6.0 9.0 10.0 8.0 2.0 5.0 3.0 1.0 2.0 7.0 0.0 10.0 0.0 5.0 6.0 2.0 10.0 0.0 4.0 1.0 9.0 8.0 2.0 3.0 9.0 9.0 1.0 6.0 9.0 5.0 4.0 6.0 3.0 4.0 -378.0 2.0 2.0 8.0 9.0 0.0 6.0 10.0 4.0 9.0 10.0 0.0 4.0 1.0 4.0 2.0 5.0 9.0 3.0 2.0 
2.0 7.0 2.0 3.0 6.0 4.0 2.0 2.0 4.0 10.0 9.0 9.0 5.0 0.0 7.0 0.0 10.0 4.0 8.0 2.0 3.0 0.0 2.0 5.0 1.0 4.0 5.0 8.0 8.0 2.0 5.0 10.0 0.0 6.0 2.0 5.0 2.0 7.0 8.0 9.0 10.0 0.0 0.0 2.0 5.0 5.0 2.0 10.0 1.0 4.0 3.0 5.0 8.0 8.0 2.0 -329.0 7.0 7.0 2.0 1.0 7.0 5.0 8.0 5.0 1.0 0.0 2.0 8.0 0.0 0.0 7.0 5.0 1.0 10.0 
6.0 10.0 1.0 8.0 7.0 7.0 8.0 8.0 2.0 10.0 3.0 10.0 4.0 8.0 3.0 6.0 6.0 8.0 0.0 0.0 0.0 9.0 5.0 3.0 8.0 6.0 2.0 2.0 7.0 7.0 0.0 3.0 3.0 2.0 5.0 7.0 9.0 2.0 2.0 3.0 10.0 0.0 9.0 8.0 9.0 4.0 2.0 8.0 1.0 9.0 0.0 7.0 7.0 7.0 2.0 7.0 -366.0 7.0 6.0 8.0 2.0 1.0 3.0 2.0 10.0 3.0 2.0 0.0 3.0 9.0 4.0 7.0 4.0 5.0 
7.0 4.0 8.0 6.0 2.0 4.0 8.0 10.0 10.0 3.0 6.0 1.0 6.0 2.0 10.0 10.0 9.0 7.0 8.0 7.0 3.0 6.0 3.0 2.0 10.0 10.0 0.0 0.0 2.0 5.0 1.0 4.0 3.0 6.0 7.0 7.0 6.0 0.0 6.0 1.0 8.0 7.0 9.0 9.0 10.0 4.0 8.0 1.0 3.0 0.0 7.0 9.0 3.0 9.0 8.0 7.0 7.0 -394.0 6.0 9.0 5.0 7.0 3.0 6.0 8.0 2.0 7.0 3.0 4.0 8.0 1.0 1.0 5.0 0.0 
3.0 4.0 7.0 2.0 5.0 10.0 10.0 7.0 1.0 8.0 10.0 1.0 3.0 4.0 10.0 10.0 3.0 5.0 10.0 0.0 2.0 4.0 3.0 0.0 10.0 10.0 2.0 10.0 9.0 10.0 3.0 5.0 10.0 0.0 2.0 1.0 8.0 4.0 10.0 0.0 3.0 10.0 9.0 6.0 10.0 1.0 6.0 3.0 2.0 10.0 7.0 4.0 8.0 3.0 9.0 2.0 6.0 6.0 -367.0 1.0 1.0 6.0 3.0 4.0 5.0 3.0 1.0 4.0 4.0 8.0 4.0 1.0 0.0 1.0 
9.0 10.0 1.0 7.0 8.0 1.0 5.0 3.0 9.0 4.0 7.0 6.0 8.0 7.0 6.0 10.0 3.0 7.0 8.0 4.0 5.0 3.0 7.0 4.0 8.0 4.0 1.0 4.0 10.0 6.0 1.0 6.0 4.0 7.0 3.0 9.0 10.0 9.0 6.0 5.0 2.0 9.0 1.0 2.0 6.0 4.0 10.0 9.0 7.0 3.0 8.0 4.0 0.0 1.0 0.0 1.0 8.0 9.0 1.0 -376.0 8.0 2.0 0.0 5.0 3.0 1.0 2.0 9.0 0.0 7.0 10.0 3.0 4.0 2.0 
9.0 10.0 7.0 5.0 5.0 5.0 2.0 10.0 8.0 6.0 9.0 6.0 6.0 4.0 5.0 9.0 7.0 10.0 5.0 8.0 1.0 2.0 7.0 7.0 10.0 5.0 2.0 5.0 0.0 10.0 10.0 6.0 2.0 6.0 3.0 8.0 10.0 6.0 9.0 6.0 1.0 8.0 8.0 3.0 1.0 1.0 8.0 2.0 1.0 8.0 4.0 9.0 0.0 7.0 6.0 7.0 2.0 5.0 1.0 8.0 -403.0 9.0 1.0 1.0 3.0 0.0 0.0 7.0 4.0 7.0 6.0 10.0 10.0 4.0 
9.0 7.0 4.0 7.0 5.0 9.0 5.0 2.0 1.0 10.0 9.0 9.0 3.0 3.0 6.0 0.0 0.0 9.0 8.0 5.0 1.0 2.0 3.0 2.0 6.0 7.0 2.0 3.0 5.0 6.0 5.0 8.0 5.0 7.0 7.0 5.0 3.0 4.0 0.0 5.0 9.0 10.0 10.0 7.0 9.0 4.0 1.0 9.0 9.0 4.0 9.0 10.0 7.0 8.0 10.0 5.0 1.0 7.0 6.0 2.0 9.0 -412.0 8.0 2.0 6.0 5.0 4.0 5.0 5.0 6.0 10.0 6.0 9.0 3.0 
3.0 3.0 5.0 9.0 5.0 2.0 5.0 1.0 0.0 5.0 5.0 6.0 4.0 7.0 6.0 2.0 10.0 0.0 6.0 10.0 8.0 9.0 6.0 6.0 10.0 9.0 5.0 2.0 2.0 9.0 8.0 7.0 2.0 0.0 10.0 6.0 5.0 8.0 2.0 5.0 8.0 5.0 0.0 6.0 5.0 1.0 4.0 2.0 0.0 3.0 10.0 1.0 2.0 9.0 4.0 8.0 3.0 3.0 3.0 0.0 1.0 8.0 -359.0 9.0 0.0 3.0 0.0 10.0 8.0 6.0 7.0 6.0 3.0 8.0 
7.0 5.0 3.0 8.0 3.0 5.0 10.0 1.0 10.0 2.0 5.0 6.0 8.0 0.0 4.0 4.0 10.0 0.0 8.0 5.0 1.0 5.0 6.0 1.0 2.0 1.0 8.0 10.0 0.0 8.0 1.0 9.0 0.0 8.0 2.0 0.0 5.0 1.0 0.0 2.0 2.0 7.0 5.0 3.0 3.0 6.0 0.0 9.0 1.0 7.0 7.0 9.0 8.0 4.0 9.0 5.0 2.0 6.0 4.0 5.0 1.0 2.0 9.0 -328.0 2.0 8.0 10.0 0.0 1.0 2.0 2.0 8.0 5.0 2.0 
2.0 7.0 1.0 7.0 8.0 8.0 8.0 4.0 4.0 4.0 9.0 8.0 1.0 2.0 8.0 0.0 3.0 9.0 7.0 7.0 0.0 4.0 8.0 4.0 3.0 9.0 8.0 4.0 7.0 1.0 1.0 9.0 7.0 6.0 8.0 7.0 1.0 7.0 0.0 1.0 8.0 0.0 8.0 0.0 1.0 5.0 2.0 7.0 9.0 0.0 2.0 3.0 2.0 0.0 10.0 1.0 10.0 8.0 5.0 3.0 3.0 6.0 0.0 2.0 -340.0 10.0 5.0 2.0 1.0 10.0 0.0 3.0 7.0 5.0 
5.0 0.0 3.0 4.0 4.0 6.0 6.0 1.0 8.0 7.0 8.0 9.0 0.0 5.0 6.0 9.0 1.0 10.0 6.0 8.0 7.0 4.0 10.0 5.0 0.0 0.0 2.0 7.0 1.0 4.0 5.0 8.0 7.0 5.0 0.0 0.0 1.0 9.0 5.0 4.0 1.0 6.0 0.0 4.0 3.0 3.0 6.0 7.0 1.0 9.0 3.0 4.0 8.0 1.0 0.0 0.0 3.0 2.0 3.0 1.0 0.0 5.0 3.0 8.0 10.0 -321.0 4.0 8.0 10.0 5.0 8.0 5.0 0.0 0.0 
3.0 0.0 10.0 0.0 10.0 6.0 9.0 10.0 8.0 8.0 8.0 10.0 6.0 10.0 6.0 0.0 8.0 9.0 5.0 0.0 8.0 2.0 0.0 10.0 2.0 5.0 8.0 0.0 8.0 2.0 4.0 0.0 8.0 3.0 7.0 4.0 4.0 5.0 8.0 3.0 5.0 2.0 9.0 2.0 9.0 6.0 5.0 1.0 2.0 8.0 2.0 3.0 5.0 2.0 4.0 2.0 2.0 7.0 1.0 2.0 0.0 4.0 0.0 10.0 5.0 4.0 -359.0 7.0 2.0 10.0 9.0 9.0 2.0 1.0 
6.0 0.0 0.0 4.0 0.0 8.0 8.0 10.0 2.0 0.0 2.0 8.0 2.0 7.0 2.0 6.0 9.0 0.0 9.0 1.0 1.0 5.0 1.0 7.0 1.0 2.0 9.0 8.0 8.0 8.0 10.0 8.0 5.0 9.0 8.0 3.0 9.0 8.0 6.0 6.0 8.0 9.0 3.0 7.0 9.0 2.0 0.0 1.0 5.0 1.0 9.0 0.0 3.0 0.0 1.0 8.0 0.0 3.0 4.0 9.0 7.0 5.0 10.0 0.0 2.0 8.0 7.0 -352.0 1.0 9.0 1.0 6.0 7.0 1.0 
1.0 0.0 8.0 0.0 0.0 9.0 7.0 10.0 2.0 5.0 8.0 9.0 7.0 7.0 8.0 8.0 8.0 6.0 9.0 6.0 5.0 1.0 2.0 6.0 7.0 8.0 5.0 4.0 2.0 10.0 6.0 5.0 8.0 7.0 4.0 5.0 8.0 2.0 0.0 0.0 3.0 1.0 8.0 1.0 2.0 0.0 1.0 9.0 7.0 8.0 0.0 2.0 6.0 1.0 4.0 0.0 3.0 4.0 4.0 0.0 4.0 5.0 8.0 1.0 1.0 10.0 2.0 1.0 -324.0 8.0 0.0 1.0 4.0 2.0 
9.0 0.0 4.0 1.0 6.0 2.0 10.0 7.0 0.0 4.0 2.0 0.0 4.0 5.0 4.0 1.0 7.0 3.0 5.0 0.0 4.0 6.0 9.0 1.0 9.0 6.0 4.0 1.0 7.0 1.0 1.0 4.0 7.0 2.0 7.0 5.0 6.0 3.0 8.0 10.0 5.0 9.0 9.0 1.0 6.0 8.0 6.0 9.0 9.0 8.0 1.0 5.0 6.0 2.0 2.0 0.0 9.0 8.0 8.0 7.0 7.0 6.0 6.0 2.0 10.0 5.0 10.0 9.0 8.0 -357.0 0.0 0.0 1.0 0.0 
6.0 0.0 5.0 2.0 10.0 10.0 0.0 0.0 2.0 6.0 7.0 8.0 1.0 0.0 2.0 2.0 1.0 8.0 4.0 7.0 4.0 1.0 0.0 1.0 6.0 4.0 2.0 3.0 0.0 0.0 8.0 1.0 2.0 1.0 9.0 9.0 2.0 1.0 5.0 5.0 8.0 0.0 8.0 3.0 8.0 2.0 4.0 0.0 8.0 6.0 9.0 1.0 4.0 10.0 5.0 7.0 4.0 1.0 4.0 10.0 6.0 10.0 7.0 2.0 0.0 8.0 9.0 1.0 0.0 0.0 -310.0 10.0 10.0 0.0 
4.0 0.0 9.0 6.0 3.0 0.0 6.0 1.0 1.0 9.0 5.0 5.0 6.0 3.0 4.0 8.0 4.0 0.0 5.0 8.0 9.0 0.0 1.0 8.0 5.0 5.0 2.0 4.0 4.0 8.0 10.0 8.0 7.0 7.0 3.0 0.0 4.0 6.0 8.0 8.0 3.0 2.0 9.0 3.0 7.0 6.0 8.0 5.0 5.0 8.0 4.0 4.0 6.0 6.0 9.0 5.0 7.0 1.0 1.0 3.0 10.0 6.0 6.0 8.0 3.0 5.0 9.0 6.0 1.0 0.0 10.0 -367.0 1.0 6.0 
6.0 0.0 2.0 4.0 7.0 8.0 2.0 2.0 10.0 7.0 1.0 1.0 6.0 6.0 1.0 4.0 1.0 8.0 4.0 0.0 2.0 5.0 8.0 9.0 8.0 3.0 7.0 6.0 1.0 4.0 0.0 10.0 4.0 10.0 9.0 10.0 10.0 4.0 8.0 5.0 1.0 9.0 1.0 2.0 7.0 5.0 8.0 0.0 2.0 1.0 6.0 7.0 8.0 10.0 3.0 1.0 4.0 5.0 0.0 4.0 10.0 9.0 3.0 5.0 7.0 0.0 2.0 7.0 4.0 1.0 10.0 1.0 -356.0 10.0 
4.0 0.0 9.0 9.0 6.0 7.0 10.0 6.0 8.0 7.0 10.0 3.0 5.0 8.0 8.0 8.0 6.0 10.0 5.0 6.0 0.0 1.0 9.0 3.0 10.0 8.0 0.0 10.0 8.0 0.0 2.0 3.0 0.0 3.0 4.0 8.0 5.0 6.0 5.0 7.0 6.0 1.0 7.0 1.0 9.0 6.0 0.0 1.0 6.0 2.0 1.0 4.0 1.0 1.0 2.0 10.0 5.0 0.0 1.0 2.0 4.0 3.0 8.0 2.0 5.0 0.0 1.0 1.0 2.0 0.0 0.0 6.0 10.0 -335.0 

